p edge 200 943
e 44 1
e 102 1
e 114 1
e 120 1
e 134 1
e 142 1
e 147 1
e 156 1
e 6 2
e 22 2
e 27 2
e 39 2
e 51 2
e 77 2
e 86 2
e 98 2
e 111 2
e 117 2
e 120 2
e 154 2
e 156 2
e 157 2
e 160 2
e 174 2
e 188 2
e 12 3
e 22 3
e 33 3
e 35 3
e 48 3
e 55 3
e 84 3
e 99 3
e 127 3
e 11 4
e 48 4
e 64 4
e 164 4
e 191 4
e 28 5
e 71 5
e 77 5
e 90 5
e 129 5
e 164 5
e 165 5
e 17 6
e 36 6
e 48 6
e 55 6
e 57 6
e 63 6
e 67 6
e 71 6
e 82 6
e 91 6
e 96 6
e 110 6
e 114 6
e 117 6
e 119 6
e 123 6
e 181 6
e 23 7
e 111 7
e 145 7
e 155 7
e 168 7
e 36 8
e 70 8
e 95 8
e 171 8
e 188 8
e 34 9
e 49 9
e 64 9
e 128 9
e 142 9
e 157 9
e 177 9
e 193 9
e 62 10
e 79 10
e 83 10
e 97 10
e 137 10
e 152 10
e 193 10
e 30 11
e 51 11
e 74 11
e 92 11
e 95 11
e 104 11
e 167 11
e 168 11
e 178 11
e 14 12
e 32 12
e 42 12
e 56 12
e 130 12
e 186 12
e 14 13
e 34 13
e 63 13
e 156 13
e 168 13
e 171 13
e 183 13
e 192 13
e 66 14
e 70 14
e 84 14
e 96 14
e 198 14
e 27 15
e 43 15
e 46 15
e 54 15
e 97 15
e 104 15
e 116 15
e 154 15
e 177 15
e 183 15
e 196 15
e 29 16
e 105 16
e 115 16
e 141 16
e 162 16
e 39 17
e 106 17
e 128 17
e 131 17
e 147 17
e 161 17
e 163 17
e 167 17
e 188 17
e 25 18
e 43 18
e 80 18
e 87 18
e 104 18
e 139 18
e 183 18
e 39 19
e 50 19
e 61 19
e 105 19
e 52 20
e 65 20
e 66 20
e 67 20
e 77 20
e 91 20
e 116 20
e 180 20
e 37 21
e 53 21
e 67 21
e 68 21
e 93 21
e 97 21
e 131 21
e 150 21
e 181 21
e 188 21
e 189 21
e 193 21
e 199 21
e 29 22
e 97 22
e 124 22
e 171 22
e 173 22
e 198 22
e 26 23
e 71 23
e 131 23
e 136 23
e 170 23
e 30 24
e 37 24
e 40 24
e 62 24
e 108 24
e 121 24
e 131 24
e 143 24
e 145 24
e 54 25
e 87 25
e 112 25
e 148 25
e 89 26
e 93 26
e 107 26
e 156 26
e 171 26
e 172 26
e 175 26
e 37 27
e 46 27
e 52 27
e 57 27
e 77 27
e 85 27
e 112 27
e 122 27
e 135 27
e 144 27
e 179 27
e 29 28
e 33 28
e 49 28
e 84 28
e 102 28
e 106 28
e 142 28
e 146 28
e 160 28
e 52 29
e 117 29
e 119 29
e 136 29
e 143 29
e 160 29
e 175 29
e 177 29
e 188 29
e 191 29
e 196 29
e 44 30
e 59 30
e 78 30
e 105 30
e 139 30
e 152 30
e 169 30
e 174 30
e 196 30
e 45 31
e 73 31
e 76 31
e 124 31
e 133 31
e 144 31
e 152 31
e 199 31
e 34 32
e 40 32
e 66 32
e 71 32
e 73 32
e 112 32
e 114 32
e 122 32
e 142 32
e 167 32
e 44 33
e 51 33
e 83 33
e 106 33
e 109 33
e 110 33
e 111 33
e 137 33
e 169 33
e 190 33
e 95 34
e 125 34
e 140 34
e 181 34
e 48 35
e 59 35
e 94 35
e 133 35
e 46 36
e 60 36
e 106 36
e 111 36
e 134 36
e 149 36
e 150 36
e 158 36
e 61 37
e 85 37
e 107 37
e 137 37
e 181 37
e 43 38
e 53 38
e 63 38
e 78 38
e 81 38
e 86 38
e 94 38
e 127 38
e 138 38
e 168 38
e 42 39
e 50 39
e 70 39
e 73 39
e 74 39
e 77 39
e 116 39
e 135 39
e 141 39
e 155 39
e 166 39
e 172 39
e 181 39
e 185 39
e 51 40
e 65 40
e 114 40
e 128 40
e 151 40
e 181 40
e 182 40
e 185 40
e 62 41
e 94 41
e 103 41
e 106 41
e 136 41
e 139 41
e 144 41
e 157 41
e 165 41
e 183 41
e 73 42
e 83 42
e 86 42
e 142 42
e 167 42
e 173 42
e 175 42
e 180 42
e 182 42
e 60 43
e 92 43
e 139 43
e 165 43
e 199 43
e 159 44
e 175 44
e 77 45
e 89 45
e 105 45
e 113 45
e 157 45
e 183 45
e 47 46
e 53 46
e 80 46
e 89 46
e 116 46
e 151 46
e 192 46
e 197 46
e 82 47
e 100 47
e 103 47
e 112 47
e 192 47
e 55 48
e 71 48
e 84 48
e 85 48
e 114 48
e 116 48
e 127 48
e 163 48
e 57 49
e 74 49
e 114 49
e 179 49
e 183 49
e 190 49
e 195 49
e 196 49
e 53 50
e 60 50
e 77 50
e 123 50
e 178 50
e 189 50
e 74 51
e 89 51
e 97 51
e 129 51
e 133 51
e 55 52
e 60 52
e 63 52
e 181 52
e 189 52
e 196 52
e 55 53
e 58 53
e 80 53
e 108 53
e 134 53
e 135 53
e 182 53
e 56 54
e 62 54
e 66 54
e 67 54
e 75 54
e 80 54
e 98 54
e 105 54
e 109 54
e 132 54
e 139 54
e 149 54
e 154 54
e 159 54
e 191 54
e 102 55
e 121 55
e 122 55
e 124 55
e 171 55
e 186 55
e 189 55
e 194 55
e 82 56
e 115 56
e 145 56
e 157 56
e 72 57
e 80 57
e 99 57
e 115 57
e 158 57
e 167 57
e 173 57
e 195 57
e 62 58
e 78 58
e 79 58
e 91 58
e 96 58
e 132 58
e 133 58
e 157 58
e 168 58
e 186 58
e 199 58
e 200 58
e 64 59
e 80 59
e 84 59
e 101 59
e 119 59
e 120 59
e 139 59
e 142 59
e 156 59
e 165 59
e 173 59
e 182 59
e 191 59
e 192 59
e 74 60
e 83 60
e 114 60
e 146 60
e 158 60
e 186 60
e 189 60
e 66 61
e 72 61
e 100 61
e 107 61
e 141 61
e 190 61
e 87 62
e 120 62
e 128 62
e 147 62
e 152 62
e 169 62
e 190 62
e 90 63
e 112 63
e 119 63
e 139 63
e 142 63
e 147 63
e 162 63
e 165 63
e 168 63
e 185 63
e 71 64
e 81 64
e 114 64
e 145 64
e 175 64
e 177 64
e 188 64
e 113 65
e 115 65
e 120 65
e 193 65
e 82 66
e 98 66
e 104 66
e 124 66
e 154 66
e 174 66
e 182 66
e 92 67
e 114 67
e 126 67
e 141 67
e 171 67
e 175 67
e 198 67
e 71 68
e 113 68
e 130 68
e 185 68
e 74 69
e 93 69
e 121 69
e 136 69
e 142 69
e 165 69
e 188 69
e 197 69
e 198 69
e 145 70
e 198 70
e 91 71
e 102 71
e 109 71
e 122 71
e 158 71
e 90 72
e 122 72
e 140 72
e 198 72
e 168 73
e 192 73
e 84 74
e 133 74
e 148 74
e 152 74
e 89 75
e 112 75
e 136 75
e 151 75
e 152 75
e 180 75
e 82 76
e 84 76
e 116 76
e 130 76
e 136 76
e 147 76
e 84 77
e 124 77
e 148 77
e 189 77
e 194 77
e 87 78
e 96 78
e 115 78
e 118 78
e 124 78
e 142 78
e 156 78
e 190 78
e 85 79
e 100 79
e 104 79
e 135 79
e 136 79
e 138 79
e 153 79
e 185 79
e 188 79
e 191 79
e 85 80
e 87 80
e 151 80
e 90 81
e 91 81
e 102 81
e 129 81
e 164 81
e 170 81
e 178 81
e 180 81
e 106 82
e 174 82
e 187 82
e 94 83
e 119 83
e 133 83
e 152 83
e 185 83
e 89 84
e 112 84
e 136 84
e 186 84
e 190 84
e 191 84
e 112 85
e 153 85
e 161 85
e 177 85
e 188 85
e 96 86
e 117 86
e 127 86
e 159 86
e 187 86
e 196 86
e 118 87
e 129 87
e 169 87
e 179 87
e 183 87
e 193 87
e 97 88
e 160 88
e 161 88
e 172 88
e 187 88
e 103 89
e 197 89
e 118 90
e 140 90
e 152 90
e 198 90
e 95 91
e 96 91
e 123 91
e 126 91
e 158 91
e 166 91
e 188 91
e 194 91
e 102 92
e 113 92
e 123 92
e 172 92
e 112 93
e 146 93
e 161 93
e 110 94
e 174 94
e 179 94
e 113 95
e 114 95
e 157 95
e 111 96
e 196 96
e 152 97
e 157 97
e 158 97
e 118 98
e 120 98
e 146 98
e 149 98
e 180 98
e 184 98
e 197 98
e 131 99
e 143 99
e 152 99
e 170 99
e 128 100
e 134 100
e 113 101
e 137 101
e 165 101
e 186 101
e 106 102
e 116 102
e 118 102
e 119 102
e 128 102
e 196 102
e 116 103
e 136 103
e 139 103
e 148 103
e 152 103
e 198 103
e 149 104
e 185 104
e 193 104
e 130 105
e 150 105
e 160 105
e 182 105
e 125 106
e 135 106
e 136 106
e 170 106
e 178 106
e 187 106
e 195 106
e 157 107
e 165 107
e 181 107
e 185 107
e 127 108
e 139 108
e 171 108
e 190 108
e 195 108
e 114 109
e 122 109
e 125 109
e 149 109
e 171 109
e 187 109
e 192 109
e 193 109
e 116 110
e 147 110
e 150 111
e 152 111
e 173 111
e 187 111
e 152 112
e 179 112
e 189 112
e 192 112
e 117 113
e 174 113
e 177 113
e 121 114
e 123 114
e 128 114
e 198 115
e 139 116
e 144 116
e 156 116
e 168 116
e 184 116
e 188 116
e 196 116
e 134 117
e 139 117
e 157 117
e 128 118
e 143 118
e 169 118
e 180 118
e 153 119
e 161 119
e 178 119
e 192 119
e 121 120
e 135 120
e 180 120
e 148 121
e 175 121
e 177 121
e 183 121
e 186 121
e 187 121
e 188 121
e 190 121
e 160 122
e 167 122
e 176 122
e 181 122
e 142 123
e 155 123
e 175 123
e 157 124
e 163 124
e 164 124
e 176 124
e 187 124
e 190 124
e 134 125
e 184 125
e 149 126
e 152 126
e 161 126
e 164 126
e 165 126
e 176 126
e 191 126
e 150 127
e 170 127
e 200 127
e 133 128
e 149 128
e 155 128
e 159 128
e 176 128
e 187 128
e 182 129
e 150 130
e 174 130
e 195 130
e 197 130
e 141 131
e 146 131
e 149 131
e 158 131
e 160 131
e 163 131
e 195 131
e 150 132
e 162 132
e 170 132
e 172 133
e 183 133
e 184 133
e 200 133
e 137 134
e 146 134
e 197 134
e 137 135
e 139 135
e 178 135
e 182 135
e 191 135
e 157 136
e 159 136
e 166 136
e 144 137
e 155 137
e 160 137
e 181 137
e 184 137
e 141 138
e 162 138
e 171 138
e 140 139
e 143 139
e 147 139
e 192 139
e 143 140
e 148 140
e 163 140
e 165 140
e 169 140
e 183 140
e 195 140
e 148 141
e 170 141
e 178 141
e 184 141
e 163 143
e 174 143
e 198 143
e 199 143
e 146 144
e 149 144
e 159 144
e 168 145
e 176 145
e 191 145
e 158 146
e 159 147
e 160 147
e 162 147
e 175 147
e 176 147
e 200 147
e 168 148
e 173 149
e 176 149
e 182 149
e 187 149
e 158 150
e 182 150
e 189 151
e 191 151
e 189 152
e 193 152
e 155 153
e 177 153
e 179 153
e 195 153
e 190 154
e 171 157
e 192 157
e 159 158
e 173 158
e 176 158
e 164 159
e 169 159
e 183 159
e 185 159
e 166 160
e 167 160
e 187 160
e 198 160
e 200 160
e 171 161
e 176 161
e 179 161
e 174 162
e 186 162
e 195 162
e 174 164
e 182 164
e 199 164
e 179 166
e 185 166
e 187 166
e 174 167
e 183 167
e 193 167
e 186 168
e 191 168
e 187 169
e 174 170
e 186 172
e 183 174
e 190 174
e 187 175
e 197 175
e 191 176
e 194 176
e 189 178
e 188 181
e 183 182
e 189 183
e 186 185
e 195 185
e 189 188
e 194 192
e 199 196
e 200 197
